NAME : morphed18-5-29
COMMENT : Generated using the function morphInstances from the R-package netgen (Bossek,2015) - Number of clusters: 5 Alpha: 0.5
TYPE : TSP
DIMENSION : 18
EDGE_WEIGHT_TYPE : EUC_2D
NODE_COORD_SECTION
1 16.6756962997 84.8494678781
2 20.6457064234 49.1396134323
3 17.3837639557 68.8891626184
4 29.7023566665 69.5567498923
5 45.2897007735 89.2166908836
6 17.9453903905 89.7123921225
7 81.5937257598 56.630747285
8 79.1616017149 24.0915711282
9 12.1192438187 53.3483695395
10 25.3856214544 85.1225967157
11 98.9344535581 64.1030437513
12 41.7333926038 13.2349110203
13 27.1186807458 47.1190394181
14 63.2638665237 16.7345336403
15 34.0016570576 6.3704593053
16 84.8341058586 67.120634494
17 62.6051327491 40.2308593968
18 38.0160207096 9.2767134745
EOF
